NAME: Route
NUMBER_OF_STORES: 2
NUMBER_OF_ORDERS: 1
NUMBER_OF_VEHICLES: 1
NUMBER_OF_DEPOT: 1
NODE_COORD_SECTION
57299215606db5a50e041ddf 21.028274 105.80265789999999 57299215606db5a50e041ddf
579b10e8801e122e41351ba6 21.023808 105.842848 O-WI6G4VB
DEMAND_SECTION
579b10e8801e122e41351ba6 579b10e8801e122e41351ba6 -10 -10 54960 58560 300 0
DEPOT_SECTION
DEPORT_1 57299215606db5a50e041ddf 28800 79200
VEHICLES_SECTION
BIKE: 1
TRUCK: 0
57299233606db5a50e041de0 DEPORT_1 1000 100 35 25 200000 300 28800 79200 43200 46800
EOF